
  32    1
  10

   0   0  11 2 3 4 5 6 7 8 10 11 13 15 
   7   6   8 29 27 25 19 18 16 12 9 
   4   9   8 27 25 19 18 16 14 12 9 
   3   9   6 29 25 18 16 12 9 
   3  10   8 30 27 26 25 24 22 20 16 
   4   6   8 31 29 26 25 24 23 22 20 
   8  10   7 27 26 25 24 23 22 20 
   2  10   6 30 25 24 22 21 20 
   5   8   5 28 24 22 21 17 
   9   6   5 26 22 21 20 16 
  10   7   5 25 23 22 21 20 
   8   6   3 26 21 17 
   1   7   3 23 21 20 
   8   8   2 22 21 
   5  10   2 23 21 
   9  10   1 23 
   2   7   1 20 
   3   8   1 21 
  10   2   1 24 
   5  10   1 32
   9   8   1 32
  10  10   1 32
  10   6   1 32
   8   8   1 32
  10   6   1 32
   9   8   1 32
   5  10   1 32
  10   9   1 32
   1  10   1 32
   5   8   1 32
  10   8   1 32
   0   0   0 
